25 1 2 4 0 9 17 0
26 1 2 -4 0 10 18 0
27 -1 2 4 0 13 21 0
28 -1 2 -4 0 14 22 0
29 1 -2 4 0 11 19 0
30 1 -2 -4 0 12 20 0
31 -1 -2 4 0 15 23 0
32 -1 -2 -4 0 16 24 0
33 1 4 0 25 29 0
34 1 -4 0 26 30 0
35 -1 4 0 27 31 0
36 -1 -4 0 28 32 0
37 4 0 33 35 0
38 -4 0 34 36 0
39 -4 0 38 0
40 0 39 37 0
